(set-logic QF_NIA)
(set-info :source |
     Constraint systems stating that a matrix interpretation is
     compatible with a rewriting system (weakly compatible with
     all rules, strictly compatible with at least one).

     Contributed by Johannes Waldmann at HTKW Leipzig.
   |)
(set-info :smt-lib-version 2.0)
(set-info :category "crafted")
(set-info :status sat)
(declare-fun n0 () Int)
(assert (>= n0 0))
(declare-fun n1 () Int)
(assert (>= n1 0))
(declare-fun n2 () Int)
(assert (>= n2 0))
(declare-fun n3 () Int)
(assert (>= n3 0))
(declare-fun n4 () Int)
(assert (>= n4 0))
(declare-fun n5 () Int)
(assert (>= n5 0))
(declare-fun n6 () Int)
(assert (>= n6 0))
(declare-fun n7 () Int)
(assert (>= n7 0))
(declare-fun n8 () Int)
(assert (>= n8 0))
(declare-fun n9 () Int)
(assert (>= n9 0))
(declare-fun n10 () Int)
(assert (>= n10 0))
(declare-fun n11 () Int)
(assert (>= n11 0))
(declare-fun n12 () Int)
(assert (>= n12 0))
(declare-fun n13 () Int)
(assert (>= n13 0))
(declare-fun n14 () Int)
(assert (>= n14 0))
(declare-fun n15 () Int)
(assert (>= n15 0))
(declare-fun n16 () Int)
(assert (>= n16 0))
(declare-fun n17 () Int)
(assert (>= n17 0))
(declare-fun n18 () Int)
(assert (>= n18 0))
(declare-fun n19 () Int)
(assert (>= n19 0))
(declare-fun n20 () Int)
(assert (>= n20 0))
(declare-fun n21 () Int)
(assert (>= n21 0))
(declare-fun n22 () Int)
(assert (>= n22 0))
(declare-fun n23 () Int)
(assert (>= n23 0))
(declare-fun n24 () Int)
(assert (>= n24 0))
(declare-fun n25 () Int)
(assert (>= n25 0))
(declare-fun n26 () Int)
(assert (>= n26 0))
(declare-fun n27 () Int)
(assert (>= n27 0))
(declare-fun n28 () Int)
(assert (>= n28 0))
(declare-fun n29 () Int)
(assert (>= n29 0))
(declare-fun n30 () Int)
(assert (>= n30 0))
(declare-fun n31 () Int)
(assert (>= n31 0))
(declare-fun n32 () Int)
(assert (>= n32 0))
(declare-fun n33 () Int)
(assert (>= n33 0))
(declare-fun n34 () Int)
(assert (>= n34 0))
(declare-fun n35 () Int)
(assert (>= n35 0))
(declare-fun n36 () Int)
(assert (= n36 (* n20 n24)))
(declare-fun n37 () Int)
(assert (= n37 (* n21 n25)))
(declare-fun n38 () Int)
(assert (= n38 (* n22 n24)))
(declare-fun n39 () Int)
(assert (= n39 (* n23 n25)))
(declare-fun n40 () Int)
(assert (= n40 (+ n36 n37)))
(declare-fun n41 () Int)
(assert (= n41 (+ n38 n39)))
(declare-fun n42 () Int)
(assert (= n42 (+ n18 n40)))
(declare-fun n43 () Int)
(assert (= n43 (+ n19 n41)))
(declare-fun n44 () Int)
(assert (= n44 (* n20 n26)))
(declare-fun n45 () Int)
(assert (= n45 (* n21 n28)))
(declare-fun n46 () Int)
(assert (= n46 (* n20 n27)))
(declare-fun n47 () Int)
(assert (= n47 (* n21 n29)))
(declare-fun n48 () Int)
(assert (= n48 (* n22 n26)))
(declare-fun n49 () Int)
(assert (= n49 (* n23 n28)))
(declare-fun n50 () Int)
(assert (= n50 (* n22 n27)))
(declare-fun n51 () Int)
(assert (= n51 (* n23 n29)))
(declare-fun n52 () Int)
(assert (= n52 (+ n44 n45)))
(declare-fun n53 () Int)
(assert (= n53 (+ n46 n47)))
(declare-fun n54 () Int)
(assert (= n54 (+ n48 n49)))
(declare-fun n55 () Int)
(assert (= n55 (+ n50 n51)))
(declare-fun n56 () Int)
(assert (= n56 (* n32 n30)))
(declare-fun n57 () Int)
(assert (= n57 (* n33 n31)))
(declare-fun n58 () Int)
(assert (= n58 (* n34 n30)))
(declare-fun n59 () Int)
(assert (= n59 (* n35 n31)))
(declare-fun n60 () Int)
(assert (= n60 (+ n56 n57)))
(declare-fun n61 () Int)
(assert (= n61 (+ n58 n59)))
(declare-fun n62 () Int)
(assert (= n62 (+ n30 n60)))
(declare-fun n63 () Int)
(assert (= n63 (+ n31 n61)))
(declare-fun n64 () Int)
(assert (= n64 (* n32 n32)))
(declare-fun n65 () Int)
(assert (= n65 (* n33 n34)))
(declare-fun n66 () Int)
(assert (= n66 (* n32 n33)))
(declare-fun n67 () Int)
(assert (= n67 (* n33 n35)))
(declare-fun n68 () Int)
(assert (= n68 (* n34 n32)))
(declare-fun n69 () Int)
(assert (= n69 (* n35 n34)))
(declare-fun n70 () Int)
(assert (= n70 (* n34 n33)))
(declare-fun n71 () Int)
(assert (= n71 (* n35 n35)))
(declare-fun n72 () Int)
(assert (= n72 (+ n64 n65)))
(declare-fun n73 () Int)
(assert (= n73 (+ n66 n67)))
(declare-fun n74 () Int)
(assert (= n74 (+ n68 n69)))
(declare-fun n75 () Int)
(assert (= n75 (+ n70 n71)))
(declare-fun n76 () Int)
(assert (= n76 (* n20 n18)))
(declare-fun n77 () Int)
(assert (= n77 (* n21 n19)))
(declare-fun n78 () Int)
(assert (= n78 (* n22 n18)))
(declare-fun n79 () Int)
(assert (= n79 (* n23 n19)))
(declare-fun n80 () Int)
(assert (= n80 (+ n76 n77)))
(declare-fun n81 () Int)
(assert (= n81 (+ n78 n79)))
(declare-fun n82 () Int)
(assert (= n82 (+ n18 n80)))
(declare-fun n83 () Int)
(assert (= n83 (+ n19 n81)))
(declare-fun n84 () Int)
(assert (= n84 (* n20 n20)))
(declare-fun n85 () Int)
(assert (= n85 (* n21 n22)))
(declare-fun n86 () Int)
(assert (= n86 (* n20 n21)))
(declare-fun n87 () Int)
(assert (= n87 (* n21 n23)))
(declare-fun n88 () Int)
(assert (= n88 (* n22 n20)))
(declare-fun n89 () Int)
(assert (= n89 (* n23 n22)))
(declare-fun n90 () Int)
(assert (= n90 (* n22 n21)))
(declare-fun n91 () Int)
(assert (= n91 (* n23 n23)))
(declare-fun n92 () Int)
(assert (= n92 (+ n84 n85)))
(declare-fun n93 () Int)
(assert (= n93 (+ n86 n87)))
(declare-fun n94 () Int)
(assert (= n94 (+ n88 n89)))
(declare-fun n95 () Int)
(assert (= n95 (+ n90 n91)))
(declare-fun n96 () Int)
(assert (= n96 (* n20 n42)))
(declare-fun n97 () Int)
(assert (= n97 (* n21 n43)))
(declare-fun n98 () Int)
(assert (= n98 (* n22 n42)))
(declare-fun n99 () Int)
(assert (= n99 (* n23 n43)))
(declare-fun n100 () Int)
(assert (= n100 (+ n96 n97)))
(declare-fun n101 () Int)
(assert (= n101 (+ n98 n99)))
(declare-fun n102 () Int)
(assert (= n102 (+ n18 n100)))
(declare-fun n103 () Int)
(assert (= n103 (+ n19 n101)))
(declare-fun n104 () Int)
(assert (= n104 (* n20 n52)))
(declare-fun n105 () Int)
(assert (= n105 (* n21 n54)))
(declare-fun n106 () Int)
(assert (= n106 (* n20 n53)))
(declare-fun n107 () Int)
(assert (= n107 (* n21 n55)))
(declare-fun n108 () Int)
(assert (= n108 (* n22 n52)))
(declare-fun n109 () Int)
(assert (= n109 (* n23 n54)))
(declare-fun n110 () Int)
(assert (= n110 (* n22 n53)))
(declare-fun n111 () Int)
(assert (= n111 (* n23 n55)))
(declare-fun n112 () Int)
(assert (= n112 (+ n104 n105)))
(declare-fun n113 () Int)
(assert (= n113 (+ n106 n107)))
(declare-fun n114 () Int)
(assert (= n114 (+ n108 n109)))
(declare-fun n115 () Int)
(assert (= n115 (+ n110 n111)))
(declare-fun n116 () Int)
(assert (= n116 (* n26 n18)))
(declare-fun n117 () Int)
(assert (= n117 (* n27 n19)))
(declare-fun n118 () Int)
(assert (= n118 (* n28 n18)))
(declare-fun n119 () Int)
(assert (= n119 (* n29 n19)))
(declare-fun n120 () Int)
(assert (= n120 (+ n116 n117)))
(declare-fun n121 () Int)
(assert (= n121 (+ n118 n119)))
(declare-fun n122 () Int)
(assert (= n122 (+ n24 n120)))
(declare-fun n123 () Int)
(assert (= n123 (+ n25 n121)))
(declare-fun n124 () Int)
(assert (= n124 (* n26 n20)))
(declare-fun n125 () Int)
(assert (= n125 (* n27 n22)))
(declare-fun n126 () Int)
(assert (= n126 (* n26 n21)))
(declare-fun n127 () Int)
(assert (= n127 (* n27 n23)))
(declare-fun n128 () Int)
(assert (= n128 (* n28 n20)))
(declare-fun n129 () Int)
(assert (= n129 (* n29 n22)))
(declare-fun n130 () Int)
(assert (= n130 (* n28 n21)))
(declare-fun n131 () Int)
(assert (= n131 (* n29 n23)))
(declare-fun n132 () Int)
(assert (= n132 (+ n124 n125)))
(declare-fun n133 () Int)
(assert (= n133 (+ n126 n127)))
(declare-fun n134 () Int)
(assert (= n134 (+ n128 n129)))
(declare-fun n135 () Int)
(assert (= n135 (+ n130 n131)))
(declare-fun n136 () Int)
(assert (= n136 (* n4 n24)))
(declare-fun n137 () Int)
(assert (= n137 (* n5 n25)))
(declare-fun n138 () Int)
(assert (= n138 (+ n136 n137)))
(declare-fun n139 () Int)
(assert (= n139 (+ n3 n138)))
(declare-fun n140 () Int)
(assert (= n140 (* n4 n26)))
(declare-fun n141 () Int)
(assert (= n141 (* n5 n28)))
(declare-fun n142 () Int)
(assert (= n142 (* n4 n27)))
(declare-fun n143 () Int)
(assert (= n143 (* n5 n29)))
(declare-fun n144 () Int)
(assert (= n144 (+ n140 n141)))
(declare-fun n145 () Int)
(assert (= n145 (+ n142 n143)))
(declare-fun n146 () Int)
(assert (= n146 (* n10 n30)))
(declare-fun n147 () Int)
(assert (= n147 (* n11 n31)))
(declare-fun n148 () Int)
(assert (= n148 (+ n146 n147)))
(declare-fun n149 () Int)
(assert (= n149 (+ n9 n148)))
(declare-fun n150 () Int)
(assert (= n150 (* n10 n32)))
(declare-fun n151 () Int)
(assert (= n151 (* n11 n34)))
(declare-fun n152 () Int)
(assert (= n152 (* n10 n33)))
(declare-fun n153 () Int)
(assert (= n153 (* n11 n35)))
(declare-fun n154 () Int)
(assert (= n154 (+ n150 n151)))
(declare-fun n155 () Int)
(assert (= n155 (+ n152 n153)))
(declare-fun n156 () Int)
(assert (= n156 (* n7 n82)))
(declare-fun n157 () Int)
(assert (= n157 (* n8 n83)))
(declare-fun n158 () Int)
(assert (= n158 (+ n156 n157)))
(declare-fun n159 () Int)
(assert (= n159 (+ n6 n158)))
(declare-fun n160 () Int)
(assert (= n160 (* n7 n92)))
(declare-fun n161 () Int)
(assert (= n161 (* n8 n94)))
(declare-fun n162 () Int)
(assert (= n162 (* n7 n93)))
(declare-fun n163 () Int)
(assert (= n163 (* n8 n95)))
(declare-fun n164 () Int)
(assert (= n164 (+ n160 n161)))
(declare-fun n165 () Int)
(assert (= n165 (+ n162 n163)))
(declare-fun n166 () Int)
(assert (= n166 (* n4 n42)))
(declare-fun n167 () Int)
(assert (= n167 (* n5 n43)))
(declare-fun n168 () Int)
(assert (= n168 (+ n166 n167)))
(declare-fun n169 () Int)
(assert (= n169 (+ n3 n168)))
(declare-fun n170 () Int)
(assert (= n170 (* n4 n52)))
(declare-fun n171 () Int)
(assert (= n171 (* n5 n54)))
(declare-fun n172 () Int)
(assert (= n172 (* n4 n53)))
(declare-fun n173 () Int)
(assert (= n173 (* n5 n55)))
(declare-fun n174 () Int)
(assert (= n174 (+ n170 n171)))
(declare-fun n175 () Int)
(assert (= n175 (+ n172 n173)))
(assert (>= n159 n169))
(assert (>= n164 n174))
(assert (>= n165 n175))
(declare-fun n176 () Int)
(assert (= n176 (* n144 n30)))
(declare-fun n177 () Int)
(assert (= n177 (* n145 n31)))
(declare-fun n178 () Int)
(assert (= n178 (+ n176 n177)))
(declare-fun n179 () Int)
(assert (= n179 (+ n139 n178)))
(declare-fun n180 () Int)
(assert (= n180 (* n144 n32)))
(declare-fun n181 () Int)
(assert (= n181 (* n145 n34)))
(declare-fun n182 () Int)
(assert (= n182 (* n144 n33)))
(declare-fun n183 () Int)
(assert (= n183 (* n145 n35)))
(declare-fun n184 () Int)
(assert (= n184 (+ n180 n181)))
(declare-fun n185 () Int)
(assert (= n185 (+ n182 n183)))
(declare-fun n186 () Int)
(assert (= n186 (* n10 n122)))
(declare-fun n187 () Int)
(assert (= n187 (* n11 n123)))
(declare-fun n188 () Int)
(assert (= n188 (+ n186 n187)))
(declare-fun n189 () Int)
(assert (= n189 (+ n9 n188)))
(declare-fun n190 () Int)
(assert (= n190 (* n10 n132)))
(declare-fun n191 () Int)
(assert (= n191 (* n11 n134)))
(declare-fun n192 () Int)
(assert (= n192 (* n10 n133)))
(declare-fun n193 () Int)
(assert (= n193 (* n11 n135)))
(declare-fun n194 () Int)
(assert (= n194 (+ n190 n191)))
(declare-fun n195 () Int)
(assert (= n195 (+ n192 n193)))
(assert (>= n179 n189))
(assert (>= n184 n194))
(assert (>= n185 n195))
(declare-fun n196 () Int)
(assert (= n196 (* n154 n24)))
(declare-fun n197 () Int)
(assert (= n197 (* n155 n25)))
(declare-fun n198 () Int)
(assert (= n198 (+ n196 n197)))
(declare-fun n199 () Int)
(assert (= n199 (+ n149 n198)))
(declare-fun n200 () Int)
(assert (= n200 (* n154 n26)))
(declare-fun n201 () Int)
(assert (= n201 (* n155 n28)))
(declare-fun n202 () Int)
(assert (= n202 (* n154 n27)))
(declare-fun n203 () Int)
(assert (= n203 (* n155 n29)))
(declare-fun n204 () Int)
(assert (= n204 (+ n200 n201)))
(declare-fun n205 () Int)
(assert (= n205 (+ n202 n203)))
(declare-fun n206 () Int)
(assert (= n206 (* n7 n62)))
(declare-fun n207 () Int)
(assert (= n207 (* n8 n63)))
(declare-fun n208 () Int)
(assert (= n208 (+ n206 n207)))
(declare-fun n209 () Int)
(assert (= n209 (+ n6 n208)))
(declare-fun n210 () Int)
(assert (= n210 (* n7 n72)))
(declare-fun n211 () Int)
(assert (= n211 (* n8 n74)))
(declare-fun n212 () Int)
(assert (= n212 (* n7 n73)))
(declare-fun n213 () Int)
(assert (= n213 (* n8 n75)))
(declare-fun n214 () Int)
(assert (= n214 (+ n210 n211)))
(declare-fun n215 () Int)
(assert (= n215 (+ n212 n213)))
(assert (>= n199 n209))
(assert (>= n204 n214))
(assert (>= n205 n215))
(assert (>= n12 n102))
(assert (>= n13 n103))
(assert (>= n14 n112))
(assert (>= n15 n113))
(assert (>= n16 n114))
(assert (>= n17 n115))
(declare-fun n216 () Int)
(assert (= n216 (* n26 n24)))
(declare-fun n217 () Int)
(assert (= n217 (* n27 n25)))
(declare-fun n218 () Int)
(assert (= n218 (* n28 n24)))
(declare-fun n219 () Int)
(assert (= n219 (* n29 n25)))
(declare-fun n220 () Int)
(assert (= n220 (+ n216 n217)))
(declare-fun n221 () Int)
(assert (= n221 (+ n218 n219)))
(declare-fun n222 () Int)
(assert (= n222 (+ n24 n220)))
(declare-fun n223 () Int)
(assert (= n223 (+ n25 n221)))
(declare-fun n224 () Int)
(assert (= n224 (* n26 n26)))
(declare-fun n225 () Int)
(assert (= n225 (* n27 n28)))
(declare-fun n226 () Int)
(assert (= n226 (* n26 n27)))
(declare-fun n227 () Int)
(assert (= n227 (* n27 n29)))
(declare-fun n228 () Int)
(assert (= n228 (* n28 n26)))
(declare-fun n229 () Int)
(assert (= n229 (* n29 n28)))
(declare-fun n230 () Int)
(assert (= n230 (* n28 n27)))
(declare-fun n231 () Int)
(assert (= n231 (* n29 n29)))
(declare-fun n232 () Int)
(assert (= n232 (+ n224 n225)))
(declare-fun n233 () Int)
(assert (= n233 (+ n226 n227)))
(declare-fun n234 () Int)
(assert (= n234 (+ n228 n229)))
(declare-fun n235 () Int)
(assert (= n235 (+ n230 n231)))
(assert (>= n222 n62))
(assert (>= n223 n63))
(assert (>= n232 n72))
(assert (>= n233 n73))
(assert (>= n234 n74))
(assert (>= n235 n75))
(declare-fun n236 () Int)
(assert (= n236 (* n26 n82)))
(declare-fun n237 () Int)
(assert (= n237 (* n27 n83)))
(declare-fun n238 () Int)
(assert (= n238 (* n28 n82)))
(declare-fun n239 () Int)
(assert (= n239 (* n29 n83)))
(declare-fun n240 () Int)
(assert (= n240 (+ n236 n237)))
(declare-fun n241 () Int)
(assert (= n241 (+ n238 n239)))
(declare-fun n242 () Int)
(assert (= n242 (+ n24 n240)))
(declare-fun n243 () Int)
(assert (= n243 (+ n25 n241)))
(declare-fun n244 () Int)
(assert (= n244 (* n26 n92)))
(declare-fun n245 () Int)
(assert (= n245 (* n27 n94)))
(declare-fun n246 () Int)
(assert (= n246 (* n26 n93)))
(declare-fun n247 () Int)
(assert (= n247 (* n27 n95)))
(declare-fun n248 () Int)
(assert (= n248 (* n28 n92)))
(declare-fun n249 () Int)
(assert (= n249 (* n29 n94)))
(declare-fun n250 () Int)
(assert (= n250 (* n28 n93)))
(declare-fun n251 () Int)
(assert (= n251 (* n29 n95)))
(declare-fun n252 () Int)
(assert (= n252 (+ n244 n245)))
(declare-fun n253 () Int)
(assert (= n253 (+ n246 n247)))
(declare-fun n254 () Int)
(assert (= n254 (+ n248 n249)))
(declare-fun n255 () Int)
(assert (= n255 (+ n250 n251)))
(assert (>= n242 n102))
(assert (>= n243 n103))
(assert (>= n252 n112))
(assert (>= n253 n113))
(assert (>= n254 n114))
(assert (>= n255 n115))
(declare-fun n256 () Int)
(assert (= n256 (* n52 n30)))
(declare-fun n257 () Int)
(assert (= n257 (* n53 n31)))
(declare-fun n258 () Int)
(assert (= n258 (* n54 n30)))
(declare-fun n259 () Int)
(assert (= n259 (* n55 n31)))
(declare-fun n260 () Int)
(assert (= n260 (+ n256 n257)))
(declare-fun n261 () Int)
(assert (= n261 (+ n258 n259)))
(declare-fun n262 () Int)
(assert (= n262 (+ n42 n260)))
(declare-fun n263 () Int)
(assert (= n263 (+ n43 n261)))
(declare-fun n264 () Int)
(assert (= n264 (* n52 n32)))
(declare-fun n265 () Int)
(assert (= n265 (* n53 n34)))
(declare-fun n266 () Int)
(assert (= n266 (* n52 n33)))
(declare-fun n267 () Int)
(assert (= n267 (* n53 n35)))
(declare-fun n268 () Int)
(assert (= n268 (* n54 n32)))
(declare-fun n269 () Int)
(assert (= n269 (* n55 n34)))
(declare-fun n270 () Int)
(assert (= n270 (* n54 n33)))
(declare-fun n271 () Int)
(assert (= n271 (* n55 n35)))
(declare-fun n272 () Int)
(assert (= n272 (+ n264 n265)))
(declare-fun n273 () Int)
(assert (= n273 (+ n266 n267)))
(declare-fun n274 () Int)
(assert (= n274 (+ n268 n269)))
(declare-fun n275 () Int)
(assert (= n275 (+ n270 n271)))
(declare-fun n276 () Int)
(assert (= n276 (* n32 n122)))
(declare-fun n277 () Int)
(assert (= n277 (* n33 n123)))
(declare-fun n278 () Int)
(assert (= n278 (* n34 n122)))
(declare-fun n279 () Int)
(assert (= n279 (* n35 n123)))
(declare-fun n280 () Int)
(assert (= n280 (+ n276 n277)))
(declare-fun n281 () Int)
(assert (= n281 (+ n278 n279)))
(declare-fun n282 () Int)
(assert (= n282 (+ n30 n280)))
(declare-fun n283 () Int)
(assert (= n283 (+ n31 n281)))
(declare-fun n284 () Int)
(assert (= n284 (* n32 n132)))
(declare-fun n285 () Int)
(assert (= n285 (* n33 n134)))
(declare-fun n286 () Int)
(assert (= n286 (* n32 n133)))
(declare-fun n287 () Int)
(assert (= n287 (* n33 n135)))
(declare-fun n288 () Int)
(assert (= n288 (* n34 n132)))
(declare-fun n289 () Int)
(assert (= n289 (* n35 n134)))
(declare-fun n290 () Int)
(assert (= n290 (* n34 n133)))
(declare-fun n291 () Int)
(assert (= n291 (* n35 n135)))
(declare-fun n292 () Int)
(assert (= n292 (+ n284 n285)))
(declare-fun n293 () Int)
(assert (= n293 (+ n286 n287)))
(declare-fun n294 () Int)
(assert (= n294 (+ n288 n289)))
(declare-fun n295 () Int)
(assert (= n295 (+ n290 n291)))
(assert (>= n262 n282))
(assert (>= n263 n283))
(assert (>= n272 n292))
(assert (>= n273 n293))
(assert (>= n274 n294))
(assert (>= n275 n295))
(declare-fun n296 () Int)
(assert (= n296 (* n72 n24)))
(declare-fun n297 () Int)
(assert (= n297 (* n73 n25)))
(declare-fun n298 () Int)
(assert (= n298 (* n74 n24)))
(declare-fun n299 () Int)
(assert (= n299 (* n75 n25)))
(declare-fun n300 () Int)
(assert (= n300 (+ n296 n297)))
(declare-fun n301 () Int)
(assert (= n301 (+ n298 n299)))
(declare-fun n302 () Int)
(assert (= n302 (+ n62 n300)))
(declare-fun n303 () Int)
(assert (= n303 (+ n63 n301)))
(declare-fun n304 () Int)
(assert (= n304 (* n72 n26)))
(declare-fun n305 () Int)
(assert (= n305 (* n73 n28)))
(declare-fun n306 () Int)
(assert (= n306 (* n72 n27)))
(declare-fun n307 () Int)
(assert (= n307 (* n73 n29)))
(declare-fun n308 () Int)
(assert (= n308 (* n74 n26)))
(declare-fun n309 () Int)
(assert (= n309 (* n75 n28)))
(declare-fun n310 () Int)
(assert (= n310 (* n74 n27)))
(declare-fun n311 () Int)
(assert (= n311 (* n75 n29)))
(declare-fun n312 () Int)
(assert (= n312 (+ n304 n305)))
(declare-fun n313 () Int)
(assert (= n313 (+ n306 n307)))
(declare-fun n314 () Int)
(assert (= n314 (+ n308 n309)))
(declare-fun n315 () Int)
(assert (= n315 (+ n310 n311)))
(declare-fun n316 () Int)
(assert (= n316 (* n26 n62)))
(declare-fun n317 () Int)
(assert (= n317 (* n27 n63)))
(declare-fun n318 () Int)
(assert (= n318 (* n28 n62)))
(declare-fun n319 () Int)
(assert (= n319 (* n29 n63)))
(declare-fun n320 () Int)
(assert (= n320 (+ n316 n317)))
(declare-fun n321 () Int)
(assert (= n321 (+ n318 n319)))
(declare-fun n322 () Int)
(assert (= n322 (+ n24 n320)))
(declare-fun n323 () Int)
(assert (= n323 (+ n25 n321)))
(declare-fun n324 () Int)
(assert (= n324 (* n26 n72)))
(declare-fun n325 () Int)
(assert (= n325 (* n27 n74)))
(declare-fun n326 () Int)
(assert (= n326 (* n26 n73)))
(declare-fun n327 () Int)
(assert (= n327 (* n27 n75)))
(declare-fun n328 () Int)
(assert (= n328 (* n28 n72)))
(declare-fun n329 () Int)
(assert (= n329 (* n29 n74)))
(declare-fun n330 () Int)
(assert (= n330 (* n28 n73)))
(declare-fun n331 () Int)
(assert (= n331 (* n29 n75)))
(declare-fun n332 () Int)
(assert (= n332 (+ n324 n325)))
(declare-fun n333 () Int)
(assert (= n333 (+ n326 n327)))
(declare-fun n334 () Int)
(assert (= n334 (+ n328 n329)))
(declare-fun n335 () Int)
(assert (= n335 (+ n330 n331)))
(assert (>= n302 n322))
(assert (>= n303 n323))
(assert (>= n312 n332))
(assert (>= n313 n333))
(assert (>= n314 n334))
(assert (>= n315 n335))
(declare-fun n336 () Int)
(assert (= n336 (* n32 n18)))
(declare-fun n337 () Int)
(assert (= n337 (* n33 n19)))
(declare-fun n338 () Int)
(assert (= n338 (* n34 n18)))
(declare-fun n339 () Int)
(assert (= n339 (* n35 n19)))
(declare-fun n340 () Int)
(assert (= n340 (+ n336 n337)))
(declare-fun n341 () Int)
(assert (= n341 (+ n338 n339)))
(declare-fun n342 () Int)
(assert (= n342 (+ n30 n340)))
(declare-fun n343 () Int)
(assert (= n343 (+ n31 n341)))
(declare-fun n344 () Int)
(assert (= n344 (* n32 n20)))
(declare-fun n345 () Int)
(assert (= n345 (* n33 n22)))
(declare-fun n346 () Int)
(assert (= n346 (* n32 n21)))
(declare-fun n347 () Int)
(assert (= n347 (* n33 n23)))
(declare-fun n348 () Int)
(assert (= n348 (* n34 n20)))
(declare-fun n349 () Int)
(assert (= n349 (* n35 n22)))
(declare-fun n350 () Int)
(assert (= n350 (* n34 n21)))
(declare-fun n351 () Int)
(assert (= n351 (* n35 n23)))
(declare-fun n352 () Int)
(assert (= n352 (+ n344 n345)))
(declare-fun n353 () Int)
(assert (= n353 (+ n346 n347)))
(declare-fun n354 () Int)
(assert (= n354 (+ n348 n349)))
(declare-fun n355 () Int)
(assert (= n355 (+ n350 n351)))
(assert true)
(assert (>= n352 1))
(assert (>= n355 1))
(declare-fun n356 () Int)
(assert (= n356 (* n20 n30)))
(declare-fun n357 () Int)
(assert (= n357 (* n21 n31)))
(declare-fun n358 () Int)
(assert (= n358 (* n22 n30)))
(declare-fun n359 () Int)
(assert (= n359 (* n23 n31)))
(declare-fun n360 () Int)
(assert (= n360 (+ n356 n357)))
(declare-fun n361 () Int)
(assert (= n361 (+ n358 n359)))
(declare-fun n362 () Int)
(assert (= n362 (+ n18 n360)))
(declare-fun n363 () Int)
(assert (= n363 (+ n19 n361)))
(declare-fun n364 () Int)
(assert (= n364 (* n20 n32)))
(declare-fun n365 () Int)
(assert (= n365 (* n21 n34)))
(declare-fun n366 () Int)
(assert (= n366 (* n20 n33)))
(declare-fun n367 () Int)
(assert (= n367 (* n21 n35)))
(declare-fun n368 () Int)
(assert (= n368 (* n22 n32)))
(declare-fun n369 () Int)
(assert (= n369 (* n23 n34)))
(declare-fun n370 () Int)
(assert (= n370 (* n22 n33)))
(declare-fun n371 () Int)
(assert (= n371 (* n23 n35)))
(declare-fun n372 () Int)
(assert (= n372 (+ n364 n365)))
(declare-fun n373 () Int)
(assert (= n373 (+ n366 n367)))
(declare-fun n374 () Int)
(assert (= n374 (+ n368 n369)))
(declare-fun n375 () Int)
(assert (= n375 (+ n370 n371)))
(assert true)
(assert (>= n372 1))
(assert (>= n375 1))
(declare-fun n376 () Int)
(assert (= n376 (* n26 n12)))
(declare-fun n377 () Int)
(assert (= n377 (* n27 n13)))
(declare-fun n378 () Int)
(assert (= n378 (* n28 n12)))
(declare-fun n379 () Int)
(assert (= n379 (* n29 n13)))
(declare-fun n380 () Int)
(assert (= n380 (+ n376 n377)))
(declare-fun n381 () Int)
(assert (= n381 (+ n378 n379)))
(declare-fun n382 () Int)
(assert (= n382 (+ n24 n380)))
(declare-fun n383 () Int)
(assert (= n383 (+ n25 n381)))
(declare-fun n384 () Int)
(assert (= n384 (* n26 n14)))
(declare-fun n385 () Int)
(assert (= n385 (* n27 n16)))
(declare-fun n386 () Int)
(assert (= n386 (* n26 n15)))
(declare-fun n387 () Int)
(assert (= n387 (* n27 n17)))
(declare-fun n388 () Int)
(assert (= n388 (* n28 n14)))
(declare-fun n389 () Int)
(assert (= n389 (* n29 n16)))
(declare-fun n390 () Int)
(assert (= n390 (* n28 n15)))
(declare-fun n391 () Int)
(assert (= n391 (* n29 n17)))
(declare-fun n392 () Int)
(assert (= n392 (+ n384 n385)))
(declare-fun n393 () Int)
(assert (= n393 (+ n386 n387)))
(declare-fun n394 () Int)
(assert (= n394 (+ n388 n389)))
(declare-fun n395 () Int)
(assert (= n395 (+ n390 n391)))
(assert true)
(assert (>= n392 1))
(assert (>= n395 1))
(declare-fun n396 () Int)
(assert (= n396 (* n14 n24)))
(declare-fun n397 () Int)
(assert (= n397 (* n15 n25)))
(declare-fun n398 () Int)
(assert (= n398 (* n16 n24)))
(declare-fun n399 () Int)
(assert (= n399 (* n17 n25)))
(declare-fun n400 () Int)
(assert (= n400 (+ n396 n397)))
(declare-fun n401 () Int)
(assert (= n401 (+ n398 n399)))
(declare-fun n402 () Int)
(assert (= n402 (+ n12 n400)))
(declare-fun n403 () Int)
(assert (= n403 (+ n13 n401)))
(declare-fun n404 () Int)
(assert (= n404 (* n14 n26)))
(declare-fun n405 () Int)
(assert (= n405 (* n15 n28)))
(declare-fun n406 () Int)
(assert (= n406 (* n14 n27)))
(declare-fun n407 () Int)
(assert (= n407 (* n15 n29)))
(declare-fun n408 () Int)
(assert (= n408 (* n16 n26)))
(declare-fun n409 () Int)
(assert (= n409 (* n17 n28)))
(declare-fun n410 () Int)
(assert (= n410 (* n16 n27)))
(declare-fun n411 () Int)
(assert (= n411 (* n17 n29)))
(declare-fun n412 () Int)
(assert (= n412 (+ n404 n405)))
(declare-fun n413 () Int)
(assert (= n413 (+ n406 n407)))
(declare-fun n414 () Int)
(assert (= n414 (+ n408 n409)))
(declare-fun n415 () Int)
(assert (= n415 (+ n410 n411)))
(assert true)
(assert (>= n412 1))
(assert (>= n415 1))
(assert (or (> n159 n169) (> n179 n189) (> n199 n209)))
(check-sat)
(exit)
